p cnf 139 422
1 2 3 4 0
-1 -2 0
-1 -3 0
-1 -4 0
-2 -3 0
-2 -4 0
-3 -4 0
5 6 7 0
-5 -6 0
-5 -7 0
-6 -7 0
8 9 10 0
-8 -9 0
-8 -10 0
-9 -10 0
11 12 13 0
-11 -12 0
-11 -13 0
-12 -13 0
14 15 0
-14 -15 0
16 17 18 0
-16 -17 0
-16 -18 0
-17 -18 0
19 20 21 0
-19 -20 0
-19 -21 0
-20 -21 0
22 23 24 0
-22 -23 0
-22 -24 0
-23 -24 0
25 26 27 28 0
-25 -26 0
-25 -27 0
-25 -28 0
-26 -27 0
-26 -28 0
-27 -28 0
29 30 31 0
-29 -30 0
-29 -31 0
-30 -31 0
32 33 34 35 0
-32 -33 0
-32 -34 0
-32 -35 0
-33 -34 0
-33 -35 0
-34 -35 0
36 37 0
-36 -37 0
38 39 40 0
-38 -39 0
-38 -40 0
-39 -40 0
41 42 43 44 0
-41 -42 0
-41 -43 0
-41 -44 0
-42 -43 0
-42 -44 0
-43 -44 0
45 46 47 48 0
-45 -46 0
-45 -47 0
-45 -48 0
-46 -47 0
-46 -48 0
-47 -48 0
49 50 51 52 0
-49 -50 0
-49 -51 0
-49 -52 0
-50 -51 0
-50 -52 0
-51 -52 0
53 54 55 0
-53 -54 0
-53 -55 0
-54 -55 0
56 57 58 0
-56 -57 0
-56 -58 0
-57 -58 0
59 60 61 62 0
-59 -60 0
-59 -61 0
-59 -62 0
-60 -61 0
-60 -62 0
-61 -62 0
63 64 65 66 0
-63 -64 0
-63 -65 0
-63 -66 0
-64 -65 0
-64 -66 0
-65 -66 0
67 68 69 0
-67 -68 0
-67 -69 0
-68 -69 0
70 71 72 73 0
-70 -71 0
-70 -72 0
-70 -73 0
-71 -72 0
-71 -73 0
-72 -73 0
74 75 76 77 0
-74 -75 0
-74 -76 0
-74 -77 0
-75 -76 0
-75 -77 0
-76 -77 0
78 79 0
-78 -79 0
80 81 82 83 0
-80 -81 0
-80 -82 0
-80 -83 0
-81 -82 0
-81 -83 0
-82 -83 0
84 85 86 87 0
-84 -85 0
-84 -86 0
-84 -87 0
-85 -86 0
-85 -87 0
-86 -87 0
88 89 90 0
-88 -89 0
-88 -90 0
-89 -90 0
91 92 93 94 0
-91 -92 0
-91 -93 0
-91 -94 0
-92 -93 0
-92 -94 0
-93 -94 0
95 96 97 0
-95 -96 0
-95 -97 0
-96 -97 0
98 99 100 0
-98 -99 0
-98 -100 0
-99 -100 0
101 102 103 104 0
-101 -102 0
-101 -103 0
-101 -104 0
-102 -103 0
-102 -104 0
-103 -104 0
105 106 107 0
-105 -106 0
-105 -107 0
-106 -107 0
108 109 110 111 0
-108 -109 0
-108 -110 0
-108 -111 0
-109 -110 0
-109 -111 0
-110 -111 0
112 113 114 115 0
-112 -113 0
-112 -114 0
-112 -115 0
-113 -114 0
-113 -115 0
-114 -115 0
116 117 118 0
-116 -117 0
-116 -118 0
-117 -118 0
119 120 121 122 0
-119 -120 0
-119 -121 0
-119 -122 0
-120 -121 0
-120 -122 0
-121 -122 0
123 124 125 126 0
-123 -124 0
-123 -125 0
-123 -126 0
-124 -125 0
-124 -126 0
-125 -126 0
127 128 129 0
-127 -128 0
-127 -129 0
-128 -129 0
130 131 132 0
-130 -131 0
-130 -132 0
-131 -132 0
133 134 135 136 0
-133 -134 0
-133 -135 0
-133 -136 0
-134 -135 0
-134 -136 0
-135 -136 0
137 138 139 0
-137 -138 0
-137 -139 0
-138 -139 0
-1 -25 0
-2 -26 0
-3 -27 0
-4 -28 0
-2 -36 0
-4 -37 0
-1 -98 0
-2 -99 0
-4 -100 0
-1 -119 0
-2 -120 0
-3 -121 0
-4 -122 0
-5 -14 0
-7 -15 0
-5 -33 0
-6 -34 0
-7 -35 0
-5 -38 0
-6 -39 0
-7 -40 0
-5 -78 0
-7 -79 0
-5 -88 0
-6 -89 0
-7 -90 0
-5 -117 0
-7 -118 0
-8 -109 0
-9 -110 0
-10 -111 0
-11 -22 0
-12 -23 0
-13 -24 0
-11 -75 0
-12 -76 0
-13 -77 0
-11 -88 0
-12 -89 0
-13 -90 0
-11 -102 0
-12 -103 0
-13 -104 0
-11 -106 0
-13 -107 0
-14 -29 0
-15 -31 0
-14 -60 0
-15 -62 0
-14 -64 0
-15 -66 0
-14 -102 0
-15 -104 0
-15 -139 0
-16 -19 0
-17 -20 0
-18 -21 0
-17 -57 0
-18 -58 0
-16 -74 0
-17 -76 0
-18 -77 0
-16 -105 0
-18 -107 0
-16 -108 0
-17 -110 0
-18 -111 0
-20 -68 0
-21 -69 0
-19 -133 0
-20 -135 0
-21 -136 0
-22 -33 0
-23 -34 0
-24 -35 0
-22 -85 0
-23 -86 0
-24 -87 0
-25 -32 0
-26 -33 0
-27 -34 0
-28 -35 0
-25 -49 0
-26 -50 0
-27 -51 0
-28 -52 0
-25 -127 0
-27 -128 0
-28 -129 0
-29 -50 0
-30 -51 0
-31 -52 0
-29 -92 0
-30 -93 0
-31 -94 0
-30 -128 0
-31 -129 0
-32 -74 0
-33 -75 0
-34 -76 0
-35 -77 0
-32 -137 0
-34 -138 0
-35 -139 0
-36 -67 0
-37 -69 0
-38 -92 0
-39 -93 0
-40 -94 0
-38 -99 0
-40 -100 0
-38 -113 0
-39 -114 0
-40 -115 0
-45 -49 0
-46 -50 0
-47 -51 0
-48 -52 0
-45 -70 0
-46 -71 0
-47 -72 0
-48 -73 0
-49 -80 0
-50 -81 0
-51 -82 0
-52 -83 0
-49 -119 0
-50 -120 0
-51 -121 0
-52 -122 0
-54 -67 0
-55 -69 0
-54 -130 0
-55 -132 0
-53 -137 0
-55 -139 0
-56 -120 0
-57 -121 0
-58 -122 0
-59 -98 0
-60 -99 0
-62 -100 0
-59 -119 0
-60 -120 0
-61 -121 0
-62 -122 0
-59 -133 0
-60 -134 0
-61 -135 0
-62 -136 0
-63 -137 0
-65 -138 0
-66 -139 0
-67 -75 0
-68 -76 0
-69 -77 0
-67 -106 0
-69 -107 0
-67 -117 0
-69 -118 0
-68 -138 0
-69 -139 0
-70 -74 0
-71 -75 0
-72 -76 0
-73 -77 0
-70 -98 0
-71 -99 0
-73 -100 0
-70 -133 0
-71 -134 0
-72 -135 0
-73 -136 0
-74 -91 0
-75 -92 0
-76 -93 0
-77 -94 0
-74 -119 0
-75 -120 0
-76 -121 0
-77 -122 0
-80 -112 0
-81 -113 0
-82 -114 0
-83 -115 0
-84 -95 0
-85 -96 0
-87 -97 0
-84 -127 0
-86 -128 0
-87 -129 0
-88 -106 0
-90 -107 0
-95 -123 0
-96 -124 0
-97 -126 0
-101 -137 0
-103 -138 0
-104 -139 0
-108 -127 0
-110 -128 0
-111 -129 0
-131 -138 0
-132 -139 0
-133 -137 0
-135 -138 0
-136 -139 0
